RT is False
Default write of storage_offers_DA.csv just to have a file (but constraint should be inactive)
Reading model...
...model read.
creating competitive generators file...
...competitive generators recorded.
Loading data...
.. day-ahead data read.
Compiling instance...
...instance created.
Creating Offer Mitigation (model will solve as dispatch if TRUE)...
NOTE: storage offers will not be mitigated
...storage offer mitigation file created
Converting model to MPEC...
...converted
NOTE: initial MIP solve with only storage competitive to get feasible solution
Solving...

Welcome to IBM(R) ILOG(R) CPLEX(R) Interactive Optimizer 12.9.0.0
  with Simplex, Mixed Integer & Barrier Optimizers
5725-A06 5725-A29 5724-Y48 5724-Y49 5724-Y54 5724-Y55 5655-Y21
Copyright IBM Corp. 1988, 2019.  All Rights Reserved.

Type 'help' for a list of available commands.
Type 'help' followed by a command name for more
information on commands.

CPLEX> Logfile 'cplex.log' closed.
Logfile 'C:\Users\Luke\Desktop\competitiveMPEC_12.6\logs\tmpx40gk5i9.cplex.log' open.
CPLEX> New value for parallel optimization mode: -1
CPLEX> New value for mixed integer optimality gap tolerance: 0.01
CPLEX> New value for integrality tolerance: 1e-09
CPLEX> New value for feasibility tolerance: 0.01
CPLEX> New value for deterministic time limit in ticks: 175000
CPLEX> Problem 'C:\Users\Luke\Desktop\competitiveMPEC_12.6\logs\tmpmtbaqfh8.pyomo.lp' read.
Read time = 0.20 sec. (14.73 ticks)
CPLEX> Problem name         : C:\Users\Luke\Desktop\competitiveMPEC_12.6\logs\tmpmtbaqfh8.pyomo.lp
Objective sense      : Maximize
Variables            :   53805  [Nneg: 1,  Box: 22000,  Free: 4464,
                                 Binary: 27340]
Objective nonzeros   :    9164
Linear constraints   :  123205  [Less: 41346,  Greater: 59096,  Equal: 22763]
  Nonzeros           :  291791
  RHS nonzeros       :   67577

Variables            : Min LB: -5000.000        Max UB: 1000000.       
Objective nonzeros   : Min   : 0.1000000        Max   : 2500.000       
Linear constraints   :
  Nonzeros           : Min   : 0.1000000        Max   : 1000000.       
  RHS nonzeros       : Min   : 0.1000000        Max   : 1000000.       
CPLEX> CPXPARAM_Parallel                                -1
CPXPARAM_Simplex_Tolerances_Feasibility          0.01
CPXPARAM_DetTimeLimit                            175000
CPXPARAM_MIP_Tolerances_MIPGap                   0.01
CPXPARAM_MIP_Tolerances_Integrality              1.0000000000000001e-09
Tried aggregator 3 times.
MIP Presolve eliminated 88250 rows and 18675 columns.
MIP Presolve added 3444 rows and 0 columns.
MIP Presolve modified 24925 coefficients.
Aggregator did 12958 substitutions.
Reduced MIP has 25441 rows, 21693 columns, and 72378 nonzeros.
Reduced MIP has 8590 binaries, 0 generals, 0 SOSs, and 0 indicators.
Presolve time = 0.23 sec. (174.00 ticks)
Probing fixed 449 vars, tightened 3032 bounds.
Probing time = 1.45 sec. (937.65 ticks)
Tried aggregator 2 times.
MIP Presolve eliminated 999 rows and 898 columns.
MIP Presolve modified 2320 coefficients.
Aggregator did 58 substitutions.
Reduced MIP has 24384 rows, 20737 columns, and 69308 nonzeros.
Reduced MIP has 8141 binaries, 0 generals, 0 SOSs, and 0 indicators.
Presolve time = 0.09 sec. (73.58 ticks)
Probing time = 0.03 sec. (16.26 ticks)
Clique table members: 6241.
MIP emphasis: balance optimality and feasibility.
MIP search method: dynamic search.
Parallel mode: opportunistic, using up to 24 threads.
Root relaxation solution time = 0.41 sec. (596.65 ticks)

        Nodes                                         Cuts/
   Node  Left     Objective  IInf  Best Integer    Best Bound    ItCnt     Gap

      0     0       35.2255   835                     35.2255     4102         
      0     0       35.2255   676                   Cuts: 676     4396         
      0     0       35.1633   556                   Cuts: 434     4543         
      0     0       35.1011   508                   Cuts: 243     4616         
      0     0       35.1011   495                    Cuts: 82     4635         
      0     0       35.1011   489                    Cuts: 61     4649         
      0     0       35.1011   482                    Cuts: 70     4654         
      0     0       35.1011   479                    Cuts: 43     4657         
      0     0       35.1011   477                    Cuts: 37     4660         
      0     9    infeasible                           30.8028     4889         
Elapsed time = 9.44 sec. (6703.41 ticks, tree = 0.02 MB, solutions = 0)
    266    56    infeasible                           29.5816    10248         
    828   164       29.5816   427                     29.5816    10823         
   1196   706       29.5816   411                     29.5816    13139         
   1950  1374       26.2927   375                     29.5816    14207         
   2927  2074    -1377.3477   358                     29.5816    15008         
   3731  2374       29.5816   313                     29.5816    15318         
   4385  3871    -1260.0727   362                     29.5816    17135         
   5046  3765       25.6753   231                     29.5816    17031         
   5658  5207       26.2927   232                     29.5816    18650         
*  8448+ 6929                        -1411.8230       29.5816           102.10%
Elapsed time = 18.03 sec. (9719.02 ticks, tree = 64.10 MB, solutions = 1)
* 10173+    0                            0.0000        0.0000             0.00%
  10173     0        cutoff              0.0000        0.0000    28379    0.00%

Flow cuts applied:  1
Gomory fractional cuts applied:  3

Root node processing (before b&c):
  Real time             =    9.08 sec. (6695.48 ticks)
Parallel b&c, 24 threads:
  Real time             =   13.39 sec. (6333.60 ticks)
  Sync time (average)   =    0.29 sec.
  Wait time (average)   =    0.00 sec.
                          ------------
Total (root+branch&cut) =   22.47 sec. (13029.07 ticks)

Solution pool: 2 solutions saved.

MIP - Integer optimal solution:  Objective =  1.7462298274e-09
Solution time =   22.47 sec.  Iterations = 28379  Nodes = 10173
Deterministic time = 13029.23 ticks  (579.90 ticks/sec)

CPLEX> Incumbent solution written to file 'C:\Users\Luke\Desktop\competitiveMPEC_12.6\logs\tmpfru6ib1m.cplex.sol'.
CPLEX> NOTE: no warmstart specified for MIP iteration, default behavior is true
NOTE: resolving with all competitive generators using storage-only solution to warmstart
Solving...

Welcome to IBM(R) ILOG(R) CPLEX(R) Interactive Optimizer 12.9.0.0
  with Simplex, Mixed Integer & Barrier Optimizers
5725-A06 5725-A29 5724-Y48 5724-Y49 5724-Y54 5724-Y55 5655-Y21
Copyright IBM Corp. 1988, 2019.  All Rights Reserved.

Type 'help' for a list of available commands.
Type 'help' followed by a command name for more
information on commands.

CPLEX> Logfile 'cplex.log' closed.
Logfile 'C:\Users\Luke\Desktop\competitiveMPEC_12.6\logs\tmpocae5ulk.cplex.log' open.
CPLEX> New value for parallel optimization mode: -1
CPLEX> New value for mixed integer optimality gap tolerance: 0.01
CPLEX> New value for integrality tolerance: 1e-09
CPLEX> New value for feasibility tolerance: 0.01
CPLEX> New value for deterministic time limit in ticks: 175000
CPLEX> Problem 'C:\Users\Luke\Desktop\competitiveMPEC_12.6\logs\tmpf_bplyxn.pyomo.lp' read.
Read time = 0.22 sec. (14.75 ticks)
CPLEX> MIP start file 'C:\Users\Luke\Desktop\competitiveMPEC_12.6\logs\tmpa2ho4gre.cplex.mst' read.
CPLEX> Problem name         : C:\Users\Luke\Desktop\competitiveMPEC_12.6\logs\tmpf_bplyxn.pyomo.lp
Objective sense      : Maximize
Variables            :   54525  [Nneg: 1,  Box: 22720,  Free: 4464,
                                 Binary: 27340]
Objective nonzeros   :    9862
Linear constraints   :  123205  [Less: 41346,  Greater: 59096,  Equal: 22763]
  Nonzeros           :  291791
  RHS nonzeros       :   67577

Variables            : Min LB: -5000.000        Max UB: 1000000.       
Objective nonzeros   : Min   : 0.1000000        Max   : 2500.000       
Linear constraints   :
  Nonzeros           : Min   : 0.1000000        Max   : 1000000.       
  RHS nonzeros       : Min   : 0.1000000        Max   : 1000000.       
CPLEX> CPXPARAM_Parallel                                -1
CPXPARAM_Simplex_Tolerances_Feasibility          0.01
CPXPARAM_DetTimeLimit                            175000
CPXPARAM_MIP_Tolerances_MIPGap                   0.01
CPXPARAM_MIP_Tolerances_Integrality              1.0000000000000001e-09
Warning:  No solution found from 1 MIP starts.
Retaining values of one MIP start for possible repair.
Tried aggregator 3 times.
MIP Presolve eliminated 88250 rows and 19395 columns.
MIP Presolve added 3444 rows and 0 columns.
MIP Presolve modified 24925 coefficients.
Aggregator did 12958 substitutions.
Reduced MIP has 25441 rows, 21693 columns, and 72378 nonzeros.
Reduced MIP has 8590 binaries, 0 generals, 0 SOSs, and 0 indicators.
Presolve time = 0.25 sec. (174.36 ticks)
Probing fixed 449 vars, tightened 3032 bounds.
Probing time = 1.50 sec. (937.65 ticks)
Tried aggregator 2 times.
MIP Presolve eliminated 999 rows and 898 columns.
MIP Presolve modified 2320 coefficients.
Aggregator did 58 substitutions.
Reduced MIP has 24384 rows, 20737 columns, and 69308 nonzeros.
Reduced MIP has 8141 binaries, 0 generals, 0 SOSs, and 0 indicators.
Presolve time = 0.09 sec. (73.59 ticks)
Probing time = 0.05 sec. (16.26 ticks)
Clique table members: 6241.
MIP emphasis: balance optimality and feasibility.
MIP search method: dynamic search.
Parallel mode: opportunistic, using up to 24 threads.
Root relaxation solution time = 0.42 sec. (590.27 ticks)

        Nodes                                         Cuts/
   Node  Left     Objective  IInf  Best Integer    Best Bound    ItCnt     Gap

      0     0    49131.7822   873                  49131.7822     4025         
      0     0    49130.5850   678                   Cuts: 744     4354         
      0     0    49130.5850   550                   Cuts: 490     4519         
      0     0    49124.4942   502                   Cuts: 216     4605         
      0     0    49124.4942   483                    Cuts: 77     4627         
      0     0    49124.4942   472                    Cuts: 85     4647         
      0     0    49124.4942   469                    Cuts: 38     4653         
      0     0    49124.4942   467                    Cuts: 27     4655         
Repair heuristic found nothing.
      0    14    infeasible                           Cuts: 3     4857         
Elapsed time = 10.02 sec. (6860.74 ticks, tree = 0.02 MB, solutions = 0)
    319    71    40668.7874   436                  48899.6124     5957         
    716   241    36606.0810   397                  48899.6124     9482         
    981   633    44856.4222   381                  48899.6124    16386         
   1614   726    29679.7808   387                  48899.6124    17299         
   2330  1747    40265.6856   333                  48899.6124    23619         
   3041  1816    -2120.9882   382                  48899.6124    23915         
   3734  3080    48351.2242   352                  48899.6124    26545         
   4444  3366    44856.4222   320                  48899.6124    26738         
   5131  3844    22563.7273   306                  48899.6124    28428         
*  8097+ 4126                        36146.9695    48899.6124            35.28%
Elapsed time = 18.48 sec. (9917.31 ticks, tree = 34.55 MB, solutions = 1)
  10456  3687        cutoff          46482.5592    48899.6124    46543    5.20%
  11800   141    47425.1587    56    46482.5592    48771.8619    47326    4.93%
  13433   368    infeasible          46482.5592    48749.2389    48038    4.88%
  13750  2347    47559.0728   110    46482.5592    48726.8829    56698    4.83%
  14883  2860    48232.0123    47    46482.5592    48726.8829    60059    4.83%
  16954  2939    48472.4656    33    46482.5592    48726.1692    61194    4.83%
* 18326  2833      integral     0    48377.5376    48726.1692    60252    0.72%
  18518  2991    48119.5330    39    48377.5376    48726.1692    61138    0.72%
* 18744  2835      integral     0    48483.5120    48726.1692    62011    0.50%
  19388  3362    48306.0188    28    48483.5120    48726.1692    63329    0.50%
  19837  3088    48377.0124    60    48483.5120    48726.1692    62265    0.50%
  19926  3303    48304.7151     7    48483.5120    48726.1692    63877    0.50%
Elapsed time = 46.33 sec. (24536.46 ticks, tree = 34.52 MB, solutions = 6)
  19945  3305        cutoff          48483.5120    48726.1692    63890    0.50%

Clique cuts applied:  11
Cover cuts applied:  6
Implied bound cuts applied:  10
Flow cuts applied:  344
Mixed integer rounding cuts applied:  38
Gomory fractional cuts applied:  74

Root node processing (before b&c):
  Real time             =    9.56 sec. (6844.14 ticks)
Parallel b&c, 24 threads:
  Real time             =   36.97 sec. (19221.83 ticks)
  Sync time (average)   =    1.93 sec.
  Wait time (average)   =    0.08 sec.
                          ------------
Total (root+branch&cut) =   46.53 sec. (26065.97 ticks)

Solution pool: 6 solutions saved.

MIP - Integer optimal, tolerance (0.01/1e-06):  Objective =  4.8483511979e+04
Current MIP best bound =  4.8584172828e+04 (gap = 100.661, 0.21%)
Solution time =   46.56 sec.  Iterations = 85403  Nodes = 19949 (83)
Deterministic time = 26066.12 ticks  (559.82 ticks/sec)

CPLEX> Incumbent solution written to file 'C:\Users\Luke\Desktop\competitiveMPEC_12.6\logs\tmp8jf5ia7m.cplex.sol'.
CPLEX> Exporting results... 
